(set-info :smt-lib-version 2.5)
(set-info :license |https://www.gnu.org/licenses/gpl-3.0.html|)
(set-logic AUFBVDTNIRA)
(set-info :source |Benchmarks generated by Florian Schanda from the public SPARK 2014 testsuite and post-processed with a script to set more precise logics.|)
(set-info :category industrial)
(set-info :status unknown)

(declare-datatypes () ((tuple0 (Tuple0))))
(declare-sort us_private 0)
(declare-fun private__bool_eq (us_private us_private) Bool)
(declare-const us_null_ext__ us_private)
(declare-sort us_type_of_heap 0)
(declare-datatypes () ((us_type_of_heap__ref (mk___type_of_heap__ref (us_type_of_heap__content us_type_of_heap)))))
(declare-sort us_image 0)
(declare-datatypes () ((int__ref (mk_int__ref (int__content Int)))))
(declare-datatypes () ((bool__ref (mk_bool__ref (bool__content Bool)))))
(declare-datatypes () ((real__ref (mk_real__ref (real__content Real)))))
(declare-datatypes () ((us_private__ref (mk___private__ref (us_private__content us_private)))))
(define-fun int__ref___projection ((a int__ref)) Int (int__content a))
(define-fun bool__ref___projection ((a bool__ref)) Bool (bool__content a))
(define-fun real__ref___projection ((a real__ref)) Real (real__content a))
(define-fun us_private__ref___projection ((a us_private__ref)) us_private (us_private__content a))
(declare-fun power (Int Int) Int)
(assert (forall ((x Int)) (= (power x 0) 1)))
(assert (forall ((x Int) (n Int)) (=> (<= 0 n) (= (power x (+ n 1)) (* x (power x n))))))
(assert (forall ((x Int) (n Int)) (=> (< 0 n) (= (power x n) (* x (power x (- n 1)))))))
(assert (forall ((x Int)) (= (power x 1) x)))
(assert (forall ((x Int) (n Int) (m Int)) (=> (<= 0 n) (=> (<= 0 m) (= (power x (+ n m)) (* (power x n) (power x m)))))))
(assert (forall ((x Int) (n Int) (m Int)) (=> (<= 0 n) (=> (<= 0 m) (= (power x (* n m)) (power (power x n) m))))))
(assert (forall ((x Int) (y Int)) (=> (= (* x y) (* y x)) (forall ((n Int)) (=> (<= 0 n) (= (* (power x n) y) (* y (power x n))))))))
(assert (forall ((x Int) (y Int)) (=> (= (* x y) (* y x)) (forall ((n Int)) (=> (<= 0 n) (= (power (* x y) n) (* (power x n) (power y n))))))))
(assert (forall ((x Int) (y Int)) (=> (and (<= 0 x) (<= 0 y)) (<= 0 (power x y)))))
(assert (forall ((x Int) (n Int) (m Int)) (=> (and (< 0 x) (and (<= 0 n) (<= n m))) (<= (power x n) (power x m)))))
(declare-fun nth ((_ BitVec 8) Int) Bool)
(declare-fun lsr ((_ BitVec 8) Int) (_ BitVec 8))
(declare-fun asr ((_ BitVec 8) Int) (_ BitVec 8))
(declare-fun lsl ((_ BitVec 8) Int) (_ BitVec 8))
(declare-fun rotate_right1 ((_ BitVec 8) Int) (_ BitVec 8))
(declare-fun rotate_left1 ((_ BitVec 8) Int) (_ BitVec 8))
(declare-fun pow2 (Int) Int)
(define-fun to_int1 ((x (_ BitVec 8))) Int (ite (bvsge x (_ bv0 8)) (bv2nat x) (- (- 256 (bv2nat x)))))
(define-fun uint_in_range ((i Int)) Bool (and (<= 0 i) (<= i 255)))
(assert (forall ((x (_ BitVec 8)) (n (_ BitVec 8))) (= (bvlshr x n) (lsr x (bv2nat n)))))
(assert (forall ((x (_ BitVec 8)) (n (_ BitVec 8))) (= (bvashr x n) (asr x (bv2nat n)))))
(assert (forall ((x (_ BitVec 8)) (n (_ BitVec 8))) (= (bvshl x n) (lsl x (bv2nat n)))))
(assert (forall ((v (_ BitVec 8)) (n (_ BitVec 8))) (= (bvor (bvshl v (bvurem n (_ bv8 8))) (bvlshr v (bvsub (_ bv8 8) (bvurem n (_ bv8 8))))) (rotate_left1 v (bv2nat n)))))
(assert (forall ((v (_ BitVec 8)) (n (_ BitVec 8))) (= (bvor (bvlshr v (bvurem n (_ bv8 8))) (bvshl v (bvsub (_ bv8 8) (bvurem n (_ bv8 8))))) (rotate_right1 v (bv2nat n)))))
(declare-fun nth_bv ((_ BitVec 8) (_ BitVec 8)) Bool)
(assert (forall ((x (_ BitVec 8)) (i (_ BitVec 8))) (= (= (nth_bv x i) true) (not (= (bvand (bvlshr x i) #x01) #x00)))))
(assert (forall ((x (_ BitVec 8)) (i (_ BitVec 8))) (= (nth x (bv2nat i)) (nth_bv x i))))
(assert (forall ((x (_ BitVec 8)) (i Int)) (=> (and (<= 0 i) (< i 256)) (= (nth_bv x ((_ int2bv 8) i)) (nth x i)))))
(declare-fun eq_sub_bv ((_ BitVec 8) (_ BitVec 8) (_ BitVec 8) (_ BitVec 8)) Bool)
(assert (forall ((a (_ BitVec 8)) (b (_ BitVec 8)) (i (_ BitVec 8)) (n (_ BitVec 8))) (let ((mask (bvshl (bvsub (bvshl #x01 n) #x01) i))) (= (eq_sub_bv a b i n) (= (bvand b mask) (bvand a mask))))))
(define-fun eq_sub ((a (_ BitVec 8)) (b (_ BitVec 8)) (i Int) (n Int)) Bool (forall ((j Int)) (=> (and (<= i j) (< j (+ i n))) (= (nth a j) (nth b j)))))
(assert (forall ((a (_ BitVec 8)) (b (_ BitVec 8)) (i (_ BitVec 8)) (n (_ BitVec 8))) (= (eq_sub a b (bv2nat i) (bv2nat n)) (eq_sub_bv a b i n))))
(declare-datatypes () ((t__ref (mk_t__ref (t__content (_ BitVec 8))))))
(declare-fun power1 ((_ BitVec 8) Int) (_ BitVec 8))
(define-fun bv_min ((x (_ BitVec 8)) (y (_ BitVec 8))) (_ BitVec 8) (ite (bvule x y) x y))
(define-fun bv_max ((x (_ BitVec 8)) (y (_ BitVec 8))) (_ BitVec 8) (ite (bvule x y) y x))
(declare-fun nth1 ((_ BitVec 32) Int) Bool)
(declare-fun lsr1 ((_ BitVec 32) Int) (_ BitVec 32))
(declare-fun asr1 ((_ BitVec 32) Int) (_ BitVec 32))
(declare-fun lsl1 ((_ BitVec 32) Int) (_ BitVec 32))
(declare-fun rotate_right2 ((_ BitVec 32) Int) (_ BitVec 32))
(declare-fun rotate_left2 ((_ BitVec 32) Int) (_ BitVec 32))
(define-fun to_int2 ((x (_ BitVec 32))) Int (ite (bvsge x (_ bv0 32)) (bv2nat x) (- (- 4294967296 (bv2nat x)))))
(define-fun uint_in_range1 ((i Int)) Bool (and (<= 0 i) (<= i 4294967295)))
(assert (forall ((x (_ BitVec 32)) (n (_ BitVec 32))) (= (bvlshr x n) (lsr1 x (bv2nat n)))))
(assert (forall ((x (_ BitVec 32)) (n (_ BitVec 32))) (= (bvashr x n) (asr1 x (bv2nat n)))))
(assert (forall ((x (_ BitVec 32)) (n (_ BitVec 32))) (= (bvshl x n) (lsl1 x (bv2nat n)))))
(assert (forall ((v (_ BitVec 32)) (n (_ BitVec 32))) (= (bvor (bvshl v (bvurem n (_ bv32 32))) (bvlshr v (bvsub (_ bv32 32) (bvurem n (_ bv32 32))))) (rotate_left2 v (bv2nat n)))))
(assert (forall ((v (_ BitVec 32)) (n (_ BitVec 32))) (= (bvor (bvlshr v (bvurem n (_ bv32 32))) (bvshl v (bvsub (_ bv32 32) (bvurem n (_ bv32 32))))) (rotate_right2 v (bv2nat n)))))
(declare-fun nth_bv1 ((_ BitVec 32) (_ BitVec 32)) Bool)
(assert (forall ((x (_ BitVec 32)) (i (_ BitVec 32))) (= (= (nth_bv1 x i) true) (not (= (bvand (bvlshr x i) #x00000001) #x00000000)))))
(assert (forall ((x (_ BitVec 32)) (i (_ BitVec 32))) (= (nth1 x (bv2nat i)) (nth_bv1 x i))))
(assert (forall ((x (_ BitVec 32)) (i Int)) (=> (and (<= 0 i) (< i 4294967296)) (= (nth_bv1 x ((_ int2bv 32) i)) (nth1 x i)))))
(declare-fun eq_sub_bv1 ((_ BitVec 32) (_ BitVec 32) (_ BitVec 32) (_ BitVec 32)) Bool)
(assert (forall ((a (_ BitVec 32)) (b (_ BitVec 32)) (i (_ BitVec 32)) (n (_ BitVec 32))) (let ((mask (bvshl (bvsub (bvshl #x00000001 n) #x00000001) i))) (= (eq_sub_bv1 a b i n) (= (bvand b mask) (bvand a mask))))))
(define-fun eq_sub1 ((a (_ BitVec 32)) (b (_ BitVec 32)) (i Int) (n Int)) Bool (forall ((j Int)) (=> (and (<= i j) (< j (+ i n))) (= (nth1 a j) (nth1 b j)))))
(assert (forall ((a (_ BitVec 32)) (b (_ BitVec 32)) (i (_ BitVec 32)) (n (_ BitVec 32))) (= (eq_sub1 a b (bv2nat i) (bv2nat n)) (eq_sub_bv1 a b i n))))
(declare-datatypes () ((t__ref1 (mk_t__ref1 (t__content1 (_ BitVec 32))))))
(declare-fun power2 ((_ BitVec 32) Int) (_ BitVec 32))
(define-fun bv_min1 ((x (_ BitVec 32)) (y (_ BitVec 32))) (_ BitVec 32) (ite (bvule x y) x y))
(define-fun bv_max1 ((x (_ BitVec 32)) (y (_ BitVec 32))) (_ BitVec 32) (ite (bvule x y) y x))
(define-fun in_range ((x Int)) Bool (or (= x 0) (= x 1)))
(declare-fun attr__ATTRIBUTE_IMAGE (Bool) us_image)
(declare-fun attr__ATTRIBUTE_VALUE__pre_check (us_image) Bool)
(declare-fun attr__ATTRIBUTE_VALUE (us_image) Bool)
(declare-sort integer 0)
(declare-fun integerqtint (integer) Int)
(assert (forall ((i integer)) (and (<= (- 2147483648) (integerqtint i)) (<= (integerqtint i) 2147483647))))
(define-fun in_range1 ((x Int)) Bool (and (<= (- 2147483648) x) (<= x 2147483647)))
(declare-fun attr__ATTRIBUTE_IMAGE1 (Int) us_image)
(declare-fun attr__ATTRIBUTE_VALUE__pre_check1 (us_image) Bool)
(declare-fun attr__ATTRIBUTE_VALUE1 (us_image) Int)
(declare-fun user_eq (integer integer) Bool)
(declare-const dummy integer)
(declare-datatypes () ((integer__ref (mk_integer__ref (integer__content integer)))))
(define-fun integer__ref___projection ((a integer__ref)) integer (integer__content a))
(declare-sort universal_integer 0)
(declare-fun universal_integerqtint (universal_integer) Int)
(assert (forall ((i universal_integer)) (and (<= (- 9223372036854775808) (universal_integerqtint i)) (<= (universal_integerqtint i) 9223372036854775807))))
(define-fun in_range2 ((x Int)) Bool (and (<= (- 9223372036854775808) x) (<= x 9223372036854775807)))
(declare-fun attr__ATTRIBUTE_IMAGE2 (Int) us_image)
(declare-fun attr__ATTRIBUTE_VALUE__pre_check2 (us_image) Bool)
(declare-fun attr__ATTRIBUTE_VALUE2 (us_image) Int)
(declare-fun user_eq1 (universal_integer universal_integer) Bool)
(declare-const dummy1 universal_integer)
(declare-datatypes () ((universal_integer__ref (mk_universal_integer__ref (universal_integer__content universal_integer)))))
(define-fun universal_integer__ref___projection ((a universal_integer__ref)) universal_integer (universal_integer__content a))
(declare-sort byte 0)
(declare-const attr__ATTRIBUTE_MODULUS (_ BitVec 8))
(declare-fun attr__ATTRIBUTE_IMAGE3 ((_ BitVec 8)) us_image)
(declare-fun attr__ATTRIBUTE_VALUE__pre_check3 (us_image) Bool)
(declare-fun attr__ATTRIBUTE_VALUE3 (us_image) (_ BitVec 8))
(declare-fun user_eq2 (byte byte) Bool)
(declare-const dummy2 byte)
(declare-datatypes () ((byte__ref (mk_byte__ref (byte__content byte)))))
(define-fun byte__ref___projection ((a byte__ref)) byte (byte__content a))
(declare-fun to_rep (byte) (_ BitVec 8))
(declare-fun of_rep ((_ BitVec 8)) byte)
(assert (forall ((x byte)) (! (= (of_rep (to_rep x)) x) :pattern ((to_rep x)))))
(assert true)
(assert (forall ((x (_ BitVec 8))) (! (= (to_rep (of_rep x)) x) :pattern ((to_rep (of_rep x))))))
(define-fun to_int3 ((x byte)) Int (bv2nat (to_rep x)))
(assert (forall ((x byte)) (! (uint_in_range (to_int3 x)) :pattern ((to_int3 x)))))
(declare-datatypes () ((map__ref (mk_map__ref (map__content (Array Int byte))))))
(declare-fun slide ((Array Int byte) Int Int) (Array Int byte))
(assert (forall ((a (Array Int byte))) (forall ((first Int)) (! (= (slide a first first) a) :pattern ((slide a first first))))))
(assert (forall ((a (Array Int byte))) (forall ((old_first Int)) (forall ((new_first Int)) (forall ((i Int)) (! (= (select (slide a old_first new_first) i) (select a (- i (- new_first old_first)))) :pattern ((select (slide a old_first new_first) i))))))))
(define-fun bool_eq ((a (Array Int byte)) (a__first Int) (a__last Int) (b (Array Int byte)) (b__first Int) (b__last Int)) Bool (ite (and (ite (<= a__first a__last) (and (<= b__first b__last) (= (- a__last a__first) (- b__last b__first))) (< b__last b__first)) (forall ((temp___idx_154 Int)) (=> (and (<= a__first temp___idx_154) (<= temp___idx_154 a__last)) (= (to_rep (select a temp___idx_154)) (to_rep (select b (+ (- b__first a__first) temp___idx_154))))))) true false))
(assert (forall ((a (Array Int byte)) (b (Array Int byte))) (forall ((a__first Int) (a__last Int) (b__first Int) (b__last Int)) (=> (= (bool_eq b b__first b__last a a__first a__last) true) (and (ite (<= a__first a__last) (and (<= b__first b__last) (= (- a__last a__first) (- b__last b__first))) (< b__last b__first)) (forall ((temp___idx_154 Int)) (=> (and (<= a__first temp___idx_154) (<= temp___idx_154 a__last)) (= (to_rep (select a temp___idx_154)) (to_rep (select b (+ (- b__first a__first) temp___idx_154)))))))))))
(declare-sort positive 0)
(declare-fun positiveqtint (positive) Int)
(assert (forall ((i positive)) (and (<= 1 (positiveqtint i)) (<= (positiveqtint i) 2147483647))))
(define-fun in_range3 ((x Int)) Bool (and (<= 1 x) (<= x 2147483647)))
(declare-fun attr__ATTRIBUTE_IMAGE4 (Int) us_image)
(declare-fun attr__ATTRIBUTE_VALUE__pre_check4 (us_image) Bool)
(declare-fun attr__ATTRIBUTE_VALUE4 (us_image) Int)
(declare-fun user_eq3 (positive positive) Bool)
(declare-const dummy3 positive)
(declare-datatypes () ((positive__ref (mk_positive__ref (positive__content positive)))))
(define-fun positive__ref___projection ((a positive__ref)) positive (positive__content a))
(define-fun to_rep1 ((x integer)) Int (integerqtint x))
(declare-fun of_rep1 (Int) integer)
(assert (forall ((x integer)) (! (= (of_rep1 (to_rep1 x)) x) :pattern ((to_rep1 x)))))
(assert (forall ((x integer)) (! (in_range1 (to_rep1 x)) :pattern ((to_rep1 x)))))
(assert (forall ((x Int)) (! (=> (in_range1 x) (= (to_rep1 (of_rep1 x)) x)) :pattern ((to_rep1 (of_rep1 x))))))
(declare-sort t 0)
(declare-fun first (t) integer)
(declare-fun last (t) integer)
(declare-fun mk (Int Int) t)
(assert (forall ((f Int) (l Int)) (! (=> (in_range1 f) (=> (in_range1 l) (and (= (to_rep1 (first (mk f l))) f) (= (to_rep1 (last (mk f l))) l)))) :pattern ((mk f l)))))
(define-fun dynamic_property ((range_first Int) (range_last Int) (low Int) (high Int)) Bool (and (in_range1 low) (and (in_range1 high) (=> (<= low high) (and (in_range3 low) (in_range3 high))))))
(declare-datatypes () ((us_t (mk___t (elts (Array Int byte)) (rt t)))))
(define-fun to_array ((a us_t)) (Array Int byte) (elts a))
(define-fun of_array ((a (Array Int byte)) (f Int) (l Int)) us_t (mk___t a (mk f l)))
(define-fun first1 ((a us_t)) Int (to_rep1 (first (rt a))))
(define-fun last1 ((a us_t)) Int (to_rep1 (last (rt a))))
(define-fun length ((a us_t)) Int (ite (<= (first1 a) (last1 a)) (+ (- (last1 a) (first1 a)) 1) 0))
(declare-const value__size Int)
(declare-fun object__size ((Array Int byte)) Int)
(declare-const value__component__size Int)
(declare-fun object__component__size ((Array Int byte)) Int)
(declare-const value__alignment Int)
(declare-fun object__alignment ((Array Int byte)) Int)
(assert (<= 0 value__size))
(assert (forall ((a (Array Int byte))) (<= 0 (object__size a))))
(assert (<= 0 value__component__size))
(assert (forall ((a (Array Int byte))) (<= 0 (object__component__size a))))
(assert (<= 0 value__alignment))
(assert (forall ((a (Array Int byte))) (<= 0 (object__alignment a))))
(define-fun bool_eq1 ((x us_t) (y us_t)) Bool (bool_eq (elts x) (to_rep1 (first (rt x))) (to_rep1 (last (rt x))) (elts y) (to_rep1 (first (rt y))) (to_rep1 (last (rt y)))))
(declare-fun user_eq4 (us_t us_t) Bool)
(declare-const dummy4 us_t)
(declare-datatypes () ((bytes__ref (mk_bytes__ref (bytes__content us_t)))))
(define-fun bytes__ref___projection ((a bytes__ref)) us_t (bytes__content a))
(define-fun dynamic_invariant ((temp___expr_185 us_t) (temp___is_init_181 Bool) (temp___skip_constant_182 Bool) (temp___do_toplevel_183 Bool) (temp___do_typ_inv_184 Bool)) Bool (=> (not (= temp___skip_constant_182 true)) (dynamic_property 1 2147483647 (first1 temp___expr_185) (last1 temp___expr_185))))
(declare-sort uxx 0)
(declare-const attr__ATTRIBUTE_MODULUS1 (_ BitVec 32))
(declare-fun attr__ATTRIBUTE_IMAGE5 ((_ BitVec 32)) us_image)
(declare-fun attr__ATTRIBUTE_VALUE__pre_check5 (us_image) Bool)
(declare-fun attr__ATTRIBUTE_VALUE5 (us_image) (_ BitVec 32))
(declare-fun user_eq5 (uxx uxx) Bool)
(declare-const dummy5 uxx)
(declare-datatypes () ((uxx__ref (mk_uxx__ref (uxx__content uxx)))))
(define-fun uxx__ref___2__projection ((a uxx__ref)) uxx (uxx__content a))
(define-fun dynamic_invariant1 ((temp___expr_628 (_ BitVec 32)) (temp___is_init_624 Bool) (temp___skip_constant_625 Bool) (temp___do_toplevel_626 Bool) (temp___do_typ_inv_627 Bool)) Bool true)
(declare-const buffer us_t)
(declare-const attr__ATTRIBUTE_ADDRESS Int)
(declare-const attr__ATTRIBUTE_ADDRESS1 Int)
(declare-const attr__ATTRIBUTE_ADDRESS2 Int)
(define-fun dynamic_invariant2 ((temp___expr_46 Int) (temp___is_init_42 Bool) (temp___skip_constant_43 Bool) (temp___do_toplevel_44 Bool) (temp___do_typ_inv_45 Bool)) Bool (=> (or (= temp___is_init_42 true) (<= 1 2147483647)) (in_range3 temp___expr_46)))
(define-fun dynamic_invariant3 ((temp___expr_18 Int) (temp___is_init_14 Bool) (temp___skip_constant_15 Bool) (temp___do_toplevel_16 Bool) (temp___do_typ_inv_17 Bool)) Bool (=> (or (= temp___is_init_14 true) (<= (- 2147483648) 2147483647)) (in_range1 temp___expr_18)))
(define-fun dynamic_invariant4 ((temp___expr_151 Int) (temp___is_init_147 Bool) (temp___skip_constant_148 Bool) (temp___do_toplevel_149 Bool) (temp___do_typ_inv_150 Bool)) Bool (=> (or (= temp___is_init_147 true) (<= (- 9223372036854775808) 9223372036854775807)) (in_range2 temp___expr_151)))
(define-fun dynamic_invariant5 ((temp___expr_178 (_ BitVec 8)) (temp___is_init_174 Bool) (temp___skip_constant_175 Bool) (temp___do_toplevel_176 Bool) (temp___do_typ_inv_177 Bool)) Bool true)
(declare-const value (_ BitVec 32))
(declare-const i Int)
(declare-const o Int)
(declare-const o1 Int)
(declare-const o2 (_ BitVec 32))
(declare-const result (_ BitVec 32))
(declare-const value1 (_ BitVec 32))
(declare-const result1 Int)
(declare-const i1 Int)
(assert (dynamic_invariant buffer true false true true))
(assert (= (length buffer) 4))
(assert (= result value))
(assert (= value1 #x00000000))
(assert (= result1 i))
(assert (= i1 0))
(assert (and (= o (power 256 i1)) (in_range2 (power 256 i1))))
(assert (and (= o1 o) (uint_in_range1 o)))
(assert (= o2 ((_ int2bv 32) o1)))
(assert (not (in_range1 (- (to_rep1 (last (rt buffer))) i1))))
(check-sat)
(exit)
